CPXPARAM_TimeLimit                               3600
CPXPARAM_Read_DataCheck                          1
CPXPARAM_MIP_Strategy_HeuristicFreq              -1
Parallel mode: deterministic, using up to 8 threads for concurrent optimization.
Tried aggregator 1 time.
LP Presolve eliminated 318 rows and 0 columns.
Reduced LP has 17662 rows, 3151 columns, and 52124 nonzeros.
Presolve time = 0.00 sec. (8.14 ticks)

Iteration log . . .
Iteration:     1   Dual objective     =           979.000000
Perturbation started.
Iteration:   379   Dual objective     =           979.000000
Iteration:   397   Dual objective     =           979.000350
Initializing dual steep norms . . .
Iteration:   398   Dual objective     =           979.000436
Iteration:   798   Dual objective     =           979.001595
Iteration:  1236   Dual objective     =           979.005258
Iteration:  1569   Dual objective     =           979.010531
Iteration:  1924   Dual objective     =           979.013357
Iteration:  2171   Dual objective     =           979.014784
Iteration:  2458   Dual objective     =           979.017114
Iteration:  2715   Dual objective     =           979.024011
Iteration:  3036   Dual objective     =           979.025822
Iteration:  3321   Dual objective     =           979.028852
Iteration:  3612   Dual objective     =           979.030560
Iteration:  3914   Dual objective     =          1015.200680
Iteration:  4206   Dual objective     =          1023.538725
Iteration:  4483   Dual objective     =          1063.229394
Iteration:  4911   Dual objective     =          1063.285113
Iteration:  5250   Dual objective     =          1086.280402
Iteration:  5555   Dual objective     =          1086.286073
Iteration:  5846   Dual objective     =          1087.878820
Iteration:  6222   Dual objective     =          1091.026887
Removing perturbation.

Barrier solved model.

